
******************************************************************************
This program contains Ipopt, a library for large-scale nonlinear optimization.
 Ipopt is released as open source code under the Eclipse Public License (EPL).
         For more information visit http://projects.coin-or.org/Ipopt
******************************************************************************

This is Ipopt version 3.12.6, running with linear solver ma57.

Number of nonzeros in equality constraint Jacobian...:        8
Number of nonzeros in inequality constraint Jacobian.:        0
Number of nonzeros in Lagrangian Hessian.............:       10

Total number of variables............................:        5
                     variables with only lower bounds:        0
                variables with lower and upper bounds:        0
                     variables with only upper bounds:        0
Total number of equality constraints.................:        3
Total number of inequality constraints...............:        0
        inequality constraints with only lower bounds:        0
   inequality constraints with lower and upper bounds:        0
        inequality constraints with only upper bounds:        0

iter    objective    inf_pr   inf_du lg(mu)  ||d||  lg(rg) alpha_du alpha_pr  ls
   0  2.0738077e+01 6.71e-09 2.27e+01  -1.0 0.00e+00    -  0.00e+00 0.00e+00   0
   1  5.6401884e+00 1.80e-01 8.35e+00  -1.0 4.96e-01    -  1.00e+00 1.00e+00f  1
   2  2.7425390e+00 1.91e-01 2.75e+00  -1.0 3.69e-01    -  1.00e+00 1.00e+00f  1
   3  1.3652618e+00 7.13e-01 4.30e+00  -1.0 8.76e-01    -  1.00e+00 1.00e+00F  1
   4  3.8378448e-01 2.26e-01 2.33e+00  -1.0 2.90e-01    -  1.00e+00 1.00e+00f  1
   5  8.5065412e-02 2.59e-02 5.31e-01  -1.0 2.98e-01    -  1.00e+00 1.00e+00h  1
   6  1.4865878e-02 2.86e-02 1.40e-01  -1.7 2.23e-01    -  1.00e+00 1.00e+00h  1
   7  2.5202507e-03 7.70e-03 4.01e-02  -2.5 1.37e-01    -  1.00e+00 1.00e+00h  1
   8  3.9574299e-04 2.98e-03 9.02e-03  -2.5 8.20e-02    -  1.00e+00 1.00e+00h  1
   9  5.7537206e-05 1.04e-03 3.13e-03  -3.8 4.84e-02    -  1.00e+00 1.00e+00h  1
iter    objective    inf_pr   inf_du lg(mu)  ||d||  lg(rg) alpha_du alpha_pr  ls
  10  7.8937522e-06 3.21e-04 9.69e-04  -3.8 2.70e-02    -  1.00e+00 1.00e+00h  1
  11  1.0404706e-06 9.15e-05 2.76e-04  -5.7 1.44e-02    -  1.00e+00 1.00e+00h  1
  12  1.3382825e-07 2.46e-05 7.40e-05  -5.7 7.45e-03    -  1.00e+00 1.00e+00h  1
  13  1.6979073e-08 6.40e-06 1.92e-05  -5.7 3.80e-03    -  1.00e+00 1.00e+00h  1
  14  2.1385500e-09 1.63e-06 4.90e-06  -5.7 1.92e-03    -  1.00e+00 1.00e+00h  1
  15  2.6834563e-10 4.13e-07 1.24e-06  -8.6 9.64e-04    -  1.00e+00 1.00e+00h  1
  16  3.3607911e-11 1.04e-07 3.11e-07  -8.6 4.83e-04    -  1.00e+00 1.00e+00h  1
  17  4.2050497e-12 2.60e-08 7.80e-08  -8.6 2.42e-04    -  1.00e+00 1.00e+00h  1
  18  5.2588554e-13 6.51e-09 1.95e-08  -8.6 1.21e-04    -  1.00e+00 1.00e+00h  1
  19  6.5751604e-14 1.63e-09 4.88e-09  -9.0 6.05e-05    -  1.00e+00 1.00e+00h  1

Number of Iterations....: 19

                                   (scaled)                 (unscaled)
Objective...............:   6.5751604080118682e-14    6.5751604080118682e-14
Dual infeasibility......:   4.8848197066389342e-09    4.8848197066389342e-09
Constraint violation....:   1.6282322157223916e-09    1.6282322157223916e-09
Complementarity.........:   0.0000000000000000e+00    0.0000000000000000e+00
Overall NLP error.......:   4.8848197066389342e-09    4.8848197066389342e-09


Number of objective function evaluations             = 21
Number of objective gradient evaluations             = 20
Number of equality constraint evaluations            = 21
Number of inequality constraint evaluations          = 0
Number of equality constraint Jacobian evaluations   = 20
Number of inequality constraint Jacobian evaluations = 0
Number of Lagrangian Hessian evaluations             = 19
Total CPU secs in IPOPT (w/o function evaluations)   =      0.003
Total CPU secs in NLP function evaluations           =      0.000

EXIT: Optimal Solution Found.

************************ CUTEst statistics ************************


 Package used            :  IPOPT
 Problem                 :  HS47      
 # variables             =               5
 # constraints           =               3
 # objective functions   =        0.4200000E+02
 # objective gradients   =        0.2100000E+02
 # objective Hessians    =        0.2000000E+02
 # Hessian-vector prdct  =        0.0000000E+00
 # constraints functions =        0.4300000E+02
 # constraints gradients =        0.2200000E+02
 # constraints Hessians  =        0.2000000E+02
 Exit code               =               0
 Final f                 =   0.6575160E-13
 Set up time             =            0.00 seconds
 Solve time              =            0.02 seconds


******************************************************************

System Time =       0.0070000002 s.
